! Created with skrf 2.1.0 (http://scikit-rf.org).
# Hz S RI R 50.0
!freq ReS11 ImS11 ReS12 ImS12 ReS13 ImS13
! ReS14 ImS14
! ReS21 ImS21 ReS22 ImS22 ReS23 ImS23
! ReS24 ImS24
! ReS31 ImS31 ReS32 ImS32 ReS33 ImS33
! ReS34 ImS34
! ReS41 ImS41 ReS42 ImS42 ReS43 ImS43
! ReS44 ImS44
!
150000.0 0.2243935702 0.2616434837 0.7743048016 -0.261716783 0.2244824196 0.2345304901 -0.2231819639 -0.2345160935
 0.7743048016 -0.261716783 0.2243936737 0.2616468184 -0.2231809799 -0.2345155212 0.224483144 0.2345250053
 0.2244824196 0.2345304901 -0.2231809799 -0.2345155212 0.224392262 0.2616383895 0.7743051189 -0.2617121834
 -0.2231819639 -0.2345160935 0.224483144 0.2345250053 0.7743051189 -0.2617121834 0.2243943426 0.2616428688
649625.0 0.4750766194 0.1766293393 0.5236058964 -0.1769415191 0.4617216176 0.06220464043 -0.4604430918 -0.06214772071
 0.5236058964 -0.1769415191 0.4750788913 0.1766390524 -0.4604189976 -0.06190555106 0.4617349484 0.06218284629
 0.4617216176 0.06220464043 -0.4604189976 -0.06190555106 0.4750625948 0.1766246966 0.5236208207 -0.1769356505
 -0.4604430918 -0.06214772071 0.4617349484 0.06218284629 0.5236208207 -0.1769356505 0.4750848991 0.176632452
1149250.0 0.5090575563 0.1683681321 0.4896148126 -0.1689115421 0.4684644284 -0.02796247116 -0.4671857484 0.02807613294
 0.4896148126 -0.1689115421 0.5090638526 0.1683841355 -0.4671232308 0.02820563942 0.4684762752 -0.02800899848
 0.4684644284 -0.02796247116 -0.4671232308 0.02820563942 0.5090421254 0.1683675898 0.4896316419 -0.1689100689
 -0.4671857484 0.02807613294 0.4684762752 -0.02800899848 0.4896316419 -0.1689100689 0.5090643875 0.1683702264
1648875.0 0.5339195172 0.1841412051 0.4647403076 -0.18491479 0.4539541049 -0.08575243183 -0.4526711551 0.08591793505
 0.4647403076 -0.18491479 0.5339314978 0.1841619745 -0.45260837 0.08598768592 0.4539608957 -0.08582088923
 0.4539541049 -0.08575243183 -0.45260837 0.08598768592 0.5339042072 0.1841432568 0.4647572119 -0.1849161426
 -0.4526711551 0.08591793505 0.4539608957 -0.08582088923 0.4647572119 -0.1849161426 0.5339241597 0.1841459256
2148500.0 0.5602055382 0.2041251703 0.4384389938 -0.2051264933 0.4317284789 -0.1288330026 -0.4304408499 0.1290468472
 0.4384389938 -0.2051264933 0.5602241763 0.204148876 -0.4303870685 0.1290823398 0.4317286098 -0.1289211456
 0.4317284789 -0.1288330026 -0.4303870685 0.1290823398 0.5601907695 0.2041291209 0.4384554062 -0.2051299969
 -0.4304408499 0.1290468472 0.4317286098 -0.1289211456 0.4384554062 -0.2051299969 0.5602098409 0.2041348895
2648125.0 0.5884025493 0.2226327209 0.4102246006 -0.2238587221 0.4055138993 -0.1619585517 -0.4042226095 0.1622183359
 0.4102246006 -0.2238587221 0.5884281815 0.2226575305 -0.4041800892 0.1622337641 0.4055065647 -0.1620643781
 0.4055138993 -0.1619585517 -0.4041800892 0.1622337641 0.5883884937 0.2226381494 0.4102401932 -0.2238639756
 -0.4042226095 0.1622183359 0.4055065647 -0.1620643781 0.4102401932 -0.2238639756 0.5884092928 0.2226481894
3147750.0 0.6176094166 0.237728263 0.380999053 -0.2391756894 0.3774095428 -0.1871646051 -0.3761162432 0.187468977
 0.380999053 -0.2391756894 0.6176418708 0.237752544 -0.3760845414 0.1874730643 0.3773944726 -0.1872863336
 0.3774095428 -0.1871646051 -0.3760845414 0.1874730643 0.6175961423 0.2377348707 0.3810135887 -0.2391823733
 -0.3761162432 0.187468977 0.3773944726 -0.1872863336 0.3810135887 -0.2391823733 0.6176212694 0.2377487452
3647375.0 0.646805933 0.2489165637 0.3517832897 -0.250582246 0.3488804894 -0.2057855774 -0.3475869377 0.2061341029
 0.3517832897 -0.250582246 0.6468446923 0.2489389901 -0.347564489 0.2061323172 0.3488577899 -0.2059216832
 0.3488804894 -0.2057855774 -0.347564489 0.2061323172 0.6467934507 0.2489241249 0.3517965956 -0.2505900637
 -0.3475869377 0.2061341029 0.3488577899 -0.2059216832 0.3517965956 -0.2505900637 0.6468248287 0.2489403335
4147000.0 0.6751564855 0.256353619 0.3234135252 -0.258234648 0.3209584477 -0.218935628 -0.3196661808 0.2193285567
 0.3234135252 -0.258234648 0.6752008443 0.2563731978 -0.319651091 0.2193242357 0.3209284699 -0.2190848589
 0.3209584477 -0.218935628 -0.319651091 0.2193242357 0.675144772 0.2563619617 0.3234254874 -0.2582433123
 -0.3196661808 0.2193285567 0.3209284699 -0.2190848589 0.3234254874 -0.2582433123 0.6751834241 0.2563785364
4646625.0 0.7020742382 0.2604857967 0.2964770468 -0.2625796198 0.2943277186 -0.2276110457 -0.2930379003 0.2280490505
 0.2964770468 -0.2625796198 0.7021234244 0.2605018412 -0.2930283619 0.2280441224 0.2942909529 -0.2277724111
 0.2943277186 -0.2276110457 -0.2930283619 0.2280441224 0.7020632511 0.2604947908 0.2964876057 -0.2625888546
 -0.2930379003 0.2280490505 0.2942909529 -0.2277724111 0.2964876057 -0.2625888546 0.7021093799 0.2605097624
5146250.0 0.7272027284 0.2618602125 0.2713306253 -0.2641646696 0.2693976864 -0.2326970647 -0.2681110831 0.2331810182
 0.2713306253 -0.2641646696 0.7272559857 0.2618722893 -0.2681055597 0.2331765042 0.2693546842 -0.2328698048
 0.2693976864 -0.2326970647 -0.2681055597 0.2331765042 0.7271924162 0.2618697612 0.2713397693 -0.2641742159
 -0.2681110831 0.2331810182 0.2693546842 -0.2328698048 0.2713397693 -0.2641742159 0.7272456211 0.2618814375
5645875.0 0.7503695197 0.2610234098 0.2481468835 -0.2635367283 0.2463715168 -0.2349595787 -0.2450885452 0.2354903934
 0.2481468835 -0.2635367283 0.7504261559 0.2610312804 -0.2450858221 0.2354867576 0.246322838 -0.2351431266
 0.2463715168 -0.2349595787 -0.2450858221 0.2354867576 0.7503598282 0.2610334432 0.2481546401 -0.263546349
 -0.2450885452 0.2354903934 0.246322838 -0.2351431266 0.2481546401 -0.263546349 0.7504193431 0.2610405229
6145500.0 0.7715358442 0.2584711809 0.2269646809 -0.2611919446 0.2253067727 -0.2350429234 -0.2240275769 0.2356214533
 0.2269646809 -0.2611919446 0.7715952526 0.2584747468 -0.2240267405 0.2356188372 0.2252529534 -0.2352368655
 0.2253067727 -0.2350429234 -0.2240267405 0.2356188372 0.7715267205 0.2584816495 0.2269711074 -0.2612014277
 -0.2240275769 0.2356214533 0.2252529534 -0.2352368655 0.2269711074 -0.2612014277 0.7715916106 0.2584832282
6645125.0 0.7907524932 0.2546284005 0.2077332475 -0.2575555072 0.2061646376 -0.2334761591 -0.2048891681 0.2341031507
 0.2077332475 -0.2575555072 0.790814158 0.2546276594 -0.2048895564 0.2341015236 0.2061061727 -0.2336802006
 0.2061646376 -0.2334761591 -0.2048895564 0.2341015236 0.790743888 0.2546392711 0.2077384231 -0.2575646658
 -0.2048891681 0.2341031507 0.2061061727 -0.2336802006 0.2077384231 -0.2575646658 0.7908131888 0.25463479
7144750.0 0.8081252351 0.2498456968 0.1903467889 -0.2529783115 0.1888472265 -0.2306851512 -0.1875753075 0.2313612268
 0.1903467889 -0.2529783115 0.8081887265 0.2498407077 -0.1875764555 0.2313604769 0.1887845624 -0.2308990862
 0.1888472265 -0.2306851512 -0.1875764555 0.2313604769 0.8081171035 0.2498569481 0.1903508073 -0.2529869827
 -0.1875753075 0.2313612268 0.1887845624 -0.2308990862 0.1903508073 -0.2529869827 0.8081899059 0.2498461224
7644375.0 0.8237896313 0.2444047335 0.1746696865 -0.2477422433 0.1732243074 -0.2270072498 -0.1719556898 0.2277329108
 0.1746696865 -0.2477422433 0.8238545963 0.2443955922 -0.1719572793 0.2277328977 0.1731578411 -0.2272309379
 0.1732243074 -0.2270072498 -0.1719572793 0.2277328977 0.8237819332 0.2444163534 0.1746726507 -0.2477502857
 -0.1719556898 0.2277329108 0.1731578411 -0.2272309379 0.1746726507 -0.2477502857 0.8238574282 0.2443991003
8144000.0 0.8378937407 0.2385271799 0.1605538066 -0.2420691531 0.159151505 -0.2227062166 -0.1578859037 0.223481856
 0.1605538066 -0.2420691531 0.8379598926 0.2385140017 -0.1578877226 0.223482439 0.1590815865 -0.2229395651
 0.159151505 -0.2227062166 -0.1578877226 0.223482439 0.8378864411 0.2385391628 0.1605558249 -0.2420764436
 -0.1578859037 0.223481856 0.1590815865 -0.2229395651 0.1605558249 -0.2420764436 0.8379639362 0.2385155394
8643625.0 0.8505868762 0.2323845978 0.1478497525 -0.2361307486 0.1464821007 -0.2179860155 -0.1452192199 0.2188119348
 0.1478497525 -0.2361307486 0.8506539831 0.2323675057 -0.1452211309 0.2188129859 0.1464090369 -0.2182289651
 0.1464821007 -0.2179860155 -0.1452211309 0.2188129859 0.8505799441 0.2323969433 0.147850936 -0.2361371797
 -0.1452192199 0.2188119348 0.1464090369 -0.2182289651 0.147850936 -0.2361371797 0.8506588637 0.2323670975
9143250.0 0.8620127352 0.2261078255 0.1364137404 -0.2300579846 0.1350742538 -0.2130028271 -0.1338138036 0.2138792527
 0.1364137404 -0.2300579846 0.8620806106 0.226086943 -0.1338157206 0.2138806624 0.134998314 -0.2132553423
 0.1350742538 -0.2130028271 -0.1338157206 0.2138806624 0.8620061438 0.2261205367 0.1364142013 -0.2300634611
 -0.1338138036 0.2138792527 0.134998314 -0.2132553423 0.1364142013 -0.2300634611 0.86208602 0.2260846703
9642875.0 0.8723055509 0.2197952317 0.1261114515 -0.2239493218 0.1247950786 -0.2078751213 -0.1235367843 0.2088022201
 0.1261114515 -0.2239493218 0.8723740452 0.2197706782 -0.1235386564 0.2088038977 0.1247164993 -0.2081371825
 0.1247950786 -0.2078751213 -0.1235386564 0.2088038977 0.872299277 0.2198083144 0.1261113026 -0.2239537581
 -0.1235367843 0.2088022201 0.1247164993 -0.2081371825 0.1261113026 -0.2239537581 0.8723797364 0.2197666568
10142500.0 0.88158825 0.2135196567 0.1168198773 -0.2178776725 0.1155226394 -0.2026918824 -0.1142662465 0.2036697748
 0.1168198773 -0.2178776725 0.8816572432 0.2134915446 -0.1142680457 0.2036716473 0.1154416291 -0.202963481
 0.1155226394 -0.2026918824 -0.1142680457 0.2036716473 0.881582273 0.2135331184 0.116819232 -0.2178809902
 -0.1142662465 0.2036697748 0.1154416291 -0.202963481 0.116819232 -0.2178809902 0.881663023 0.2134859085
10642125.0 0.8899718881 0.2073340828 0.1084278846 -0.2118960757 0.1071466173 -0.1975192051 -0.1058918936 0.198547976
 0.1084278846 -0.2118960757 0.8900412841 0.2073025165 -0.1058936071 0.1985499857 0.1070633606 -0.1978003393
 0.1071466173 -0.1975192051 -0.1058936071 0.1985499857 0.8899661903 0.2073479324 0.1084268574 -0.2118982015
 -0.1058918936 0.198547976 0.1070633606 -0.1978003393 0.1084268574 -0.2118982015 0.8900470049 0.2072954066
11141750.0 0.8975558647 0.201276178 0.1008360015 -0.2060422433 0.09956816613 -0.1924055152 -0.09831490203 0.1934852225
 0.1008360015 -0.2060422433 0.8976255862 0.2012412535 -0.09831652653 0.1934873245 0.09948282782 -0.1926961876
 0.09956816613 -0.1924055152 -0.09831652653 0.1934873245 0.8975504305 0.2012904252 0.1008347088 -0.2060431073
 -0.09831490203 0.1934852225 0.09948282782 -0.1926961876 0.1008347088 -0.2060431073 0.8976311384 0.20123281
11641375.0 0.9044285807 0.1953718874 0.09395575942 -0.2003421544 0.09269930497 -0.1873856649 -0.09144731255 0.1885163466
 0.09395575942 -0.2003421544 0.9044985658 0.1953336921 -0.09144885038 0.1885185065 0.09261203301 -0.1876858807
 0.09269930497 -0.1873856649 -0.09144885038 0.1885185065 0.9044233963 0.1953865424 0.09395432124 -0.2003416884
 -0.09144731255 0.1885163466 0.09261203301 -0.1876858807 0.09395432124 -0.2003416884 0.9045038702 0.1953240504
12141000.0 0.9106683207 0.1896382444 0.08770881053 -0.1948128685 0.08646207037 -0.1824841244 -0.0852111819 0.183665804
 0.08770881053 -0.1948128685 0.9107385195 0.1895968576 -0.08521263879 0.1836679958 0.08637299885 -0.1827938902
 0.08646207037 -0.1824841244 -0.08521263879 0.1836679958 0.9106633739 0.1896533178 0.08770735198 -0.1948110053
 -0.0852111819 0.183665804 0.08637299885 -0.1827938902 0.08770735198 -0.1948110053 0.9107435217 0.189586145
12640625.0 0.9163442227 0.1840855556 0.08202595747 -0.1894647121 0.08078757208 -0.1777174573 -0.07953763836 0.178950148
 0.08202595747 -0.1894647121 0.9164145951 0.1840410492 -0.07953902171 0.1789523524 0.08069682357 -0.1780367802
 0.08078757208 -0.1777174573 -0.07953902171 0.1789523524 0.9163395025 0.1841010583 0.08202461078 -0.1894613846
 -0.07953763836 0.178950148 0.08069682357 -0.1780367802 0.08202461078 -0.1894613846 0.91641926 0.1840293839
13140250.0 0.9215172514 0.178719091 0.0768461794 -0.1843029698 0.07561503811 -0.1730962348 -0.07436592663 0.1743799425
 0.0768461794 -0.1843029698 0.9215877649 0.1786715299 -0.07436724452 0.1743821453 0.07552272561 -0.173425122
 0.07561503811 -0.1730962348 -0.07436724452 0.1743821453 0.9215127479 0.1787350338 0.0768450863 -0.1842981107
 -0.07436592663 0.1743799425 0.07552272561 -0.173425122 0.0768450863 -0.1842981107 0.9215920725 0.1786590201
13639875.0 0.9262411265 0.1735403844 0.07211570268 -0.179329186 0.07089089956 -0.1686265113 -0.06964249277 0.1699612374
 0.07211570268 -0.179329186 0.9263117548 0.1734898271 -0.06964375332 0.1699634286 0.0707971282 -0.1689649701
 0.07089089956 -0.1686265113 -0.06964375332 0.1699634286 0.9262368307 0.173556778 0.07211501713 -0.1793227275
 -0.06964249277 0.1699612374 0.0707971282 -0.1689649701 0.07211501713 -0.1793227275 0.9263156969 0.1734765714
14139500.0 0.9305631812 0.1685482316 0.0677871414 -0.1745421627 0.06656794188 -0.1643109611 -0.0653201356 0.1656967042
 0.0677871414 -0.1745421627 0.930633903 0.1684947308 -0.06532134653 0.1656988767 0.06647281032 -0.1646589985
 0.06656794188 -0.1643109611 -0.06532134653 0.1656988767 0.9305590847 0.1685650865 0.06778703271 -0.1745340377
 -0.0653201356 0.1656967042 0.06647281032 -0.1646589985 0.06778703271 -0.1745340377 0.9306374804 0.1684808183
14639125.0 0.9345251404 0.1637394534 0.06381871868 -0.1699387238 0.06260453445 -0.160149751 -0.06135723632 0.1615865082
 0.06381871868 -0.1699387238 0.9345959384 0.1636830569 -0.06135840482 0.1615886576 0.06250813602 -0.1605073739
 0.06260453445 -0.160149751 -0.06135840482 0.1615886576 0.9345212356 0.1637567801 0.06381937509 -0.1699288666
 -0.06135723632 0.1615865082 0.06250813602 -0.1605073739 0.06381937509 -0.1699288666 0.9345991583 0.1636685679
15138750.0 0.938163815 0.1591094777 0.06017357107 -0.1655142957 0.05896394132 -0.1561412103 -0.05771706955 0.1576289787
 0.06017357107 -0.1655142957 0.938234675 0.1590502285 -0.05771820213 0.1576311021 0.05886636505 -0.1565084256
 0.05896394132 -0.1561412103 -0.05771820213 0.1576311021 0.9381600947 0.1591272864 0.06017520373 -0.1655026443
 -0.05771706955 0.1576289787 0.05886636505 -0.1565084256 0.06017520373 -0.1655026443 0.9382375498 0.1590352351
15638375.0 0.9415117169 0.1546527808 0.05681913307 -0.1612633489 0.05561371091 -0.1522823439 -0.05436719305 0.1538211208
 0.05681913307 -0.1612633489 0.9415826272 0.1545907178 -0.05436829553 0.1538232168 0.05551504227 -0.1526591586
 0.05561371091 -0.1522823439 -0.05436829553 0.1538232168 0.9415081741 0.1546710813 0.05682198058 -0.1612498481
 -0.05436719305 0.1538211208 0.05551504227 -0.1526591586 0.05682198058 -0.1612498481 0.9415851726 0.1545752847
16138000.0 0.9445975985 0.1503632217 0.05372659641 -0.1571797307 0.05252513911 -0.148569224 -0.05127891106 0.1501590078
 0.05372659641 -0.1571797307 0.9446685497 0.1502983802 -0.05127998858 0.1501610762 0.05242546073 -0.1489556453
 0.05252513911 -0.148569224 -0.05127998858 0.1501610762 0.9445942268 0.1503820236 0.05373092964 -0.1571643366
 -0.05127891106 0.1501590078 0.05242546073 -0.1489556453 0.05373092964 -0.1571643366 0.9446707838 0.1502825652
16637625.0 0.9474469253 0.1462342929 0.05087043725 -0.1532569148 0.04967279953 -0.1449972887 -0.04842680461 0.1466380797
 0.05087043725 -0.1532569148 0.9475179095 0.1461667049 -0.04842786166 0.1466401209 0.04957219176 -0.1453933244
 0.04967279953 -0.1449972887 -0.04842786166 0.1466401209 0.9474437185 0.1462536055 0.05087656445 -0.1532396016
 -0.04842680461 0.1466380797 0.04957219176 -0.1453933244 0.05087656445 -0.1532396016 0.9475198522 0.1461505599
17137250.0 0.9500822877 0.1422593082 0.04822800427 -0.1494881864 0.04703413365 -0.1415615689 -0.04578832184 0.1432533693
 0.04822800427 -0.1494881864 0.9501532984 0.1421890028 -0.04578936234 0.1432553841 0.04693267499 -0.1419672275
 0.04703413365 -0.1415615689 -0.04578936234 0.1432553841 0.9500792396 0.1422791407 0.04823627601 -0.1494689552
 -0.04578832184 0.1432533693 0.04693267499 -0.1419672275 0.04823627601 -0.1494689552 0.9501549702 0.1421725742
17636875.0 0.9525237589 0.1384315416 0.04577916089 -0.1458667783 0.04458909404 -0.1382568597 -0.0433434213 0.1399996738
 0.04577916089 -0.1458667783 0.9525947907 0.1383585451 -0.04334444861 0.1400016637 0.04448686156 -0.1386721505
 0.04458909404 -0.1382568597 -0.04334444861 0.1400016637 0.9525208637 0.1384519024 0.04578997426 -0.1458456692
 -0.0433434213 0.1399996738 0.04448686156 -0.1386721505 0.04578997426 -0.1458456692 0.9525962127 0.1383418744
18136500.0 0.9547892067 0.1347443281 0.04350597548 -0.1423859682 0.04231983415 -0.1350778485 -0.04107426186 0.1368716832
 0.04350597548 -0.1423859682 0.9548602549 0.1346686646 -0.04107527886 0.1368736496 0.04221690381 -0.1355027819
 0.04231983415 -0.1350778485 -0.04107527886 0.1368736496 0.9547864586 0.1347652257 0.04351977654 -0.1423630764
 -0.04107426186 0.1368716832 0.04221690381 -0.1355027819 0.04351977654 -0.1423630764 0.9548614481 0.1346517891
18636125.0 0.9568945634 0.1311911371 0.04139245407 -0.1390391477 0.04021043873 -0.132019211 -0.03896493317 0.1338640756
 0.04139245407 -0.1390391477 0.9569656243 0.1311128286 -0.03896594233 0.1338660204 0.04010688565 -0.1324537984
 0.04021043873 -0.132019211 -0.03896594233 0.1338660204 0.9568919567 0.1312125796 0.04140973684 -0.1390146439
 -0.03896493317 0.1338640756 0.04010688565 -0.1324537984 0.04140973684 -0.1390146439 0.9569666093 0.1310957816
19135750.0 0.9588540615 0.1277656234 0.03942431092 -0.1358198687 0.03824668959 -0.1290756809 -0.03700122151 0.1309715877
 0.03942431092 -0.1358198687 0.9589251318 0.1276846898 -0.03700222491 0.1309735129 0.03814258826 -0.1295199356
 0.03824668959 -0.1290756809 -0.03700222491 0.1309735129 0.9588515906 0.1277876183 0.03944561068 -0.1357940235
 -0.03700122151 0.1309715877 0.03814258826 -0.1295199356 0.03944561068 -0.1357940235 0.9589259289 0.1276675013
19635375.0 0.9606804373 0.1244616614 0.0375887731 -0.1327218743 0.03641586191 -0.1262421012 -0.03517040616 0.1281890655
 0.0375887731 -0.1327218743 0.9607515141 0.1243781211 -0.03517140557 0.1281909729 0.03631128639 -0.1266960381
 0.03641586191 -0.1262421012 -0.03517140557 0.1281909729 0.9606780967 0.1244842161 0.0376146507 -0.1326950874
 -0.03517040616 0.1281890655 0.03631128639 -0.1266960381 0.0376146507 -0.1326950874 0.960752143 0.124360818
20135000.0 0.9623851089 0.1212733674 0.03587441543 -0.1297391197 0.03470654712 -0.12351346 -0.03346108232 0.1255114999
 0.03587441543 -0.1297391197 0.9624561898 0.1211872372 -0.03346207921 0.1255133914 0.03460157118 -0.1239770955
 0.03470654712 -0.12351346 -0.03346207921 0.1255133914 0.962382893 0.121296489 0.0359054289 -0.1297119491
 -0.03346108232 0.1255114999 0.03460157118 -0.1239770955 0.0359054289 -0.1297119491 0.9624566693 0.1211698438
20634625.0 0.9639783307 0.1181951124 0.03427102217 -0.1268657885 0.03310849859 -0.1208849144 -0.03186300686 0.1229340512
 0.03427102217 -0.1268657885 0.9640494135 0.1181064077 -0.03186400247 0.1229359288 0.03300319586 -0.1213582672
 0.03310849859 -0.1208849144 -0.03186400247 0.1229359288 0.9639762341 0.1182188074 0.03430768188 -0.1268389771
 -0.03186300686 0.1229340512 0.03300319586 -0.1213582672 0.03430768188 -0.1268389771 0.9640497615 0.1180889457
21134250.0 0.9654693282 0.1152215271 0.03276947054 -0.1240963107 0.03161249719 -0.1183518064 -0.03036696389 0.1204520649
 0.03276947054 -0.1240963107 0.965540411 0.115130262 -0.03036795923 0.1204539305 0.03150694124 -0.1188348976
 0.03161249719 -0.1183518064 -0.03036795923 0.1204539305 0.9654673454 0.115245802 0.03281217595 -0.1240707995
 -0.03036696389 0.1204520649 0.03150694124 -0.1188348976 0.03281217595 -0.1240707995 0.9655406447 0.1151127511
21633875.0 0.9668664154 0.1123475027 0.03136162904 -0.1214253865 0.03021023386 -0.1159096724 -0.02896464738 0.1180610806
 0.03136162904 -0.1214253865 0.9669374966 0.1122536902 -0.02896564328 0.1180629359 0.03010449828 -0.1164025252
 0.03021023386 -0.1159096724 -0.02896564328 0.1180629359 0.9668645411 0.1123723635 0.0314105894 -0.1214023052
 -0.02896464738 0.1180610806 0.03010449828 -0.1164025252 0.0314105894 -0.1214023052 0.9669376322 0.1122361481
22133500.0 0.9681770983 0.1095681874 0.03004026087 -0.1188480186 0.02889420707 -0.1135542464 -0.02764855863 0.1157568359
 0.03004026087 -0.1188480186 0.9682481762 0.1094718394 -0.02764955577 0.1157586829 0.02878836555 -0.114056887
 0.02889420707 -0.1135542464 -0.02764955577 0.1157586829 0.968175327 0.1095936397 0.03009540963 -0.1188286401
 -0.02764855863 0.1157568359 0.02878836555 -0.114056887 0.03009540963 -0.1188286401 0.968248229 0.1094542822
22633125.0 0.9694081639 0.1068789801 0.0287989214 -0.1163595496 0.02765763296 -0.1112814611 -0.02641191644 0.1135352674
 0.0287989214 -0.1163595496 0.9694792371 0.1067801077 -0.02641291534 0.1135371076 0.02755175932 -0.1117939183
 0.02765763296 -0.1112814611 -0.02641291534 0.1135371076 0.9694064903 0.1069050294 0.02885984306 -0.1163452009
 -0.02641191644 0.1135352674 0.02755175932 -0.1117939183 0.02885984306 -0.1163452009 0.9694792216 0.1067625499
23132750.0 0.9705657598 0.1042755227 0.02763184165 -0.1139556928 0.02649436666 -0.1090874453 -0.0252485784 0.1113925075
 0.02763184165 -0.1139556928 0.9706368271 0.1041741358 -0.0252495795 0.1113943426 0.02638853487 -0.1096097512
 0.02649436666 -0.1090874453 -0.0252495795 0.1113943426 0.9705641787 0.1043021739 0.02769773625 -0.1139476273
 -0.0252485784 0.1113925075 0.02638853487 -0.1096097512 0.02769773625 -0.1139476273 0.9706367568 0.1041565905
23632375.0 0.9716554633 0.1017536902 0.0265337986 -0.1116325413 0.02539883315 -0.1069685193 -0.02415297181 0.1093248807
 0.0265337986 -0.1116325413 0.9717265233 0.1016497983 -0.02415397542 0.1093267124 0.02529311732 -0.1075007091
 0.02539883315 -0.1069685193 -0.02415397542 0.1093267124 0.9716539692 0.1017809482 0.02660350653 -0.1116317926
 -0.02415297181 0.1093248807 0.02529311732 -0.1075007091 0.02660350653 -0.1116317926 0.9717264109 0.1016322774
24132000.0 0.972682342 0.09930958139 0.02549998623 -0.1093865408 0.02436596645 -0.1049211895 -0.02312003284 0.1073288978
 0.02549998623 -0.1093865408 0.9727533936 0.0992031931 -0.0231210392 0.1073307275 0.02426044084 -0.1054633023
 0.02436596645 -0.1049211895 -0.0231210392 0.1073307275 0.9726809296 0.09933745068 0.02557208112 -0.1093937936
 -0.02312003284 0.1073288978 0.02426044084 -0.1054633023 0.02557208112 -0.1093937936 0.9727532509 0.09918570733
24631625.0 0.9736510076 0.09693950787 0.02452590933 -0.1072144265 0.0233911561 -0.1029421414 -0.02214515301 0.1054012488
 0.02452590933 -0.1072144265 0.9737220497 0.09683063112 -0.02214616228 0.1054030779 0.02328589506 -0.1034942199
 0.0233911561 -0.1029421414 -0.02214616228 0.1054030779 0.9736496718 0.09696799256 0.02459884337 -0.1072299401
 -0.02214515301 0.1054012488 0.02328589506 -0.1034942199 0.02459884337 -0.1072299401 0.9737218878 0.09681319029
25131250.0 0.9745656636 0.09463998356 0.02360731938 -0.1051131388 0.02247019995 -0.1010282327 -0.02122413196 0.1035387961
 0.02360731938 -0.1051131388 0.974636695 0.09452862567 -0.02122514424 0.1035406259 0.02236527784 -0.1015903238
 0.02247019995 -0.1010282327 -0.02122514424 0.1035406259 0.9745643991 0.09466908751 0.02367958542 -0.1051367444
 -0.02122413196 0.1035387961 0.02236527784 -0.1015903238 0.02367958542 -0.1051367444 0.9746365241 0.09451123866
25630875.0 0.9754301463 0.09240771405 0.02274019589 -0.1030797441 0.02159926235 -0.099176485 -0.02035313564 0.1017385663
 0.02274019589 -0.1030797441 0.9755011659 0.0922938818 -0.02035415097 0.1017403982 0.02149475344 -0.09974864012
 0.02159926235 -0.099176485 -0.02035415097 0.1017403982 0.9754289479 0.09243744085 0.02281046636 -0.1031109105
 -0.02035313564 0.1017385663 0.02149475344 -0.09974864012 0.02281046636 -0.1031109105 0.9755009958 0.09227655665
26130500.0 0.9762479626 0.09023958627 0.02192076012 -0.1011113815 0.02077483727 -0.09738407653 -0.01952865938 0.09999774314
 0.02192076012 -0.1011113815 0.9763189695 0.0901232859 -0.01952967778 0.0999995783 0.02067081564 -0.09796635174
 0.02077483727 -0.09738407653 -0.01952967778 0.0999995783 0.9762468253 0.09026993924 0.02198797514 -0.1011493239
 -0.01952865938 0.09999774314 0.02067081564 -0.09796635174 0.02198797514 -0.1011493239 0.9763188089 0.09010602992
26630125.0 0.9770223225 0.08813265831 0.02114549958 -0.09920524216 0.01999371555 -0.0956483341 -0.01874749514 0.09831365903
 0.02114549958 -0.09920524216 0.9770933156 0.08801389559 -0.01874851657 0.09831549862 0.01989025486 -0.09624079058
 0.01999371555 -0.0956483341 -0.01874851657 0.09831549862 0.9770212412 0.08816364049 0.02120889771 -0.09924904128
 -0.01874749514 0.09831365903 0.01989025486 -0.09624079058 0.02120889771 -0.09924904128 0.9770931728 0.0879967154
27129750.0 0.9777561682 0.08608414967 0.02041118554 -0.09735857501 0.01925295579 -0.0939667254 -0.01800670235 0.0966837877
 0.02041118554 -0.09735857501 0.9778271465 0.08596292993 -0.01800772674 0.0966856328 0.01915012909 -0.09456942978
 0.01925295579 -0.0939667254 -0.01800772674 0.0966856328 0.9777551378 0.08611576386 0.02047028785 -0.09740728071
 -0.01800670235 0.0966837877 0.01915012909 -0.09456942978 0.02047028785 -0.09740728071 0.9778270291 0.08594583155
27629375.0 0.9784522 0.08409143196 0.01971487538 -0.0955687057 0.01854985856 -0.09233685147 -0.01730358206 0.09510573657
 0.01971487538 -0.0955687057 0.9785231625 0.08396776011 -0.01730460932 0.09510758823 0.01844773801 -0.09294987619
 0.01854985856 -0.09233685147 -0.01730460932 0.09510758823 0.9784512156 0.08412368068 0.01976944123 -0.09562141246
 -0.01730358206 0.09510573657 0.01844773801 -0.09294987619 0.01976944123 -0.09562141246 0.9785230774 0.08395074896
28129000.0 0.9791128995 0.08215201992 0.01905390033 -0.09383305775 0.01788194335 -0.09075643943 -0.01663565385 0.09357723952
 0.01905390033 -0.09383305775 0.9791838452 0.08202590048 -0.01663668387 0.09357909873 0.0177805999 -0.09137986311
 0.01788194335 -0.09075643943 -0.01663668387 0.09357909873 0.9791119562 0.08218490546 0.01910387223 -0.09388894994
 -0.01663565385 0.09357723952 0.0177805999 -0.09137986311 0.01910387223 -0.09388894994 0.979183799 0.0820089815
28628625.0 0.9797405503 0.08026356298 0.0184258434 -0.09214916877 0.01724692809 -0.08922333545 -0.01600063527 0.09209614985
 0.0184258434 -0.09214916877 0.9798114783 0.08013500013 -0.01600166793 0.09209801756 0.01714643104 -0.08985724327
 0.01724692809 -0.08922333545 -0.01600166793 0.09209801756 0.9797396433 0.08029708739 0.01847129336 -0.09220754121
 -0.01600063527 0.09209614985 0.01714643104 -0.08985724327 0.01847129336 -0.09220754121 0.9798114767 0.08011817774
29128250.0 0.9803372561 0.07842383724 0.01782851307 -0.09051469978 0.01664271082 -0.08773549804 -0.01539642347 0.09066043362
 0.01782851307 -0.09051469978 0.9804081653 0.07829283482 -0.01539745861 0.09066231072 0.01654312736 -0.08837998214
 0.01664271082 -0.08773549804 -0.01539745861 0.09066231072 0.9803363807 0.07845800235 0.01786959676 -0.09057496095
 -0.01539642347 0.09066043362 0.01654312736 -0.08837998214 0.01786959676 -0.09057496095 0.980408214 0.07827611302
29627875.0 0.9809049574 0.0766307379 0.01725991674 -0.08892743804 0.01606735328 -0.08629099167 -0.01482107868 0.08926816322
 0.01725991674 -0.08892743804 0.980975847 0.07649729944 -0.01482211615 0.08927005056 0.01596874793 -0.08694615154
 0.01606735328 -0.08629099167 -0.01482211615 0.08927005056 0.9809041091 0.07666554531 0.01729683773 -0.08898910285
 -0.01482107868 0.08926816322 0.01596874793 -0.08694615154 0.01729683773 -0.08898910285 0.9809759508 0.07648068183
